c ren 1 -> 1
c ren 2 -> 2
c ren 3 -> 3
c ren 4 -> 4
c ren 5 -> 5
c ren 6 -> 6
c ren 7 -> 7
c ren 8 -> 8
c ren 9 -> 9
c ren 10 -> 10
c ren 11 -> 11
c ren 13 -> 12
c ren 14 -> 13
c ren 15 -> 14
c ren 16 -> 15
c ren 17 -> 16
c ren 18 -> 17
c ren 19 -> 18
c ren 20 -> 19
c ren 21 -> 20
c ren 22 -> 21
c ren 23 -> 22
c ren 24 -> 23
c ren 25 -> 24
c ren 26 -> 25
c ren 27 -> 26
c ren 28 -> 27
p cnf 27 57
a 1 2 3 4 5 6 7 8 9 10 11 12 13 0
d 14 2 3 12 13 0
d 15 8 10 13 0
d 16 5 0
d 17 5 6 7 0
d 18 2 4 9 12 0
d 19 8 9 0
d 20 1 2 0
d 21 5 12 0
d 22 3 4 13 0
d 23 4 0
d 24 3 0
d 25 1 7 11 13 0
d 26 1 3 6 8 9 10 0
d 27 3 5 7 10 11 0
-5 13 -14 -16 -18 -2 0
2 13 -14 15 18 0
9 10 -14 15 19 13 0
-9 -13 14 -17 19 -5 0
-8 -9 -14 -18 19 13 0
-1 2 16 17 20 5 0
1 -13 -15 18 20 9 0
9 13 15 -18 -21 -5 0
-3 -6 14 17 21 12 0
8 13 15 19 21 -5 -12 0
9 -10 15 -18 -22 -3 4 13 0
3 10 -14 15 22 0
-5 12 -14 -16 22 4 3 0
-3 -9 -14 -18 22 0
6 -7 17 18 -23 4 0
5 -9 19 -21 -23 4 0
5 -9 -16 -18 23 -4 0
2 -13 -14 -22 23 -4 0
-3 -8 -15 22 23 -4 0
-2 13 14 21 24 12 3 0
-13 -14 -15 -24 -3 0
2 12 -18 -23 -24 4 3 0
10 13 -15 23 -24 -4 3 0
-1 11 14 -15 -25 -13 0
4 10 -15 23 -25 7 11 0
-3 11 -14 15 25 13 0
12 13 -14 23 25 4 0
2 -12 18 -19 -26 8 0
-1 3 -19 -21 -26 -8 9 12 0
-3 12 -18 21 -26 5 0
-3 -8 16 -22 -26 5 0
-8 -9 -17 -22 -26 -5 -4 -13 0
4 7 -17 22 -26 3 6 -8 0
2 -13 -14 -23 -26 -4 9 -10 0
9 -11 14 25 -26 -2 1 3 -6 0
-3 13 20 25 -26 1 2 0
-4 7 -22 25 -26 -9 -10 0
-3 -6 -14 -20 26 -2 1 0
1 10 20 21 26 -5 0
3 13 18 -22 26 2 0
-8 13 16 22 26 5 0
-1 13 14 -23 26 4 0
2 6 18 23 26 -4 3 -8 0
5 -10 16 -25 26 1 0
8 -11 17 25 26 -7 0
-3 -13 -22 25 26 0
-3 8 15 18 -27 12 0
-7 -11 -16 19 -27 -5 8 9 0
2 7 18 -20 -27 0
-4 5 -18 -21 27 0
7 -13 14 21 27 5 -12 0
-4 -9 18 -22 27 5 0
2 3 20 -23 27 4 0
-5 -10 15 -24 27 -3 0
-4 7 23 -25 27 0
-5 -11 22 26 27 -3 13 0
9 10 23 26 27 4 0
